NAME : grossezf\1c2b3c4a.knd
COMMENT : 
TYPE : CVRP
DIMENSION : 201
EDGE_WEIGHT_TYPE : EUC_2D
CAPACITY : 10100
CAPACITY_VOL : 65
NODE_COORD_TYPE : TWOD_COORDS
NODE_COORD_SECTION
1 23452 56766
2 24176 55398
3 24989 56615
4 24513 55646
5 24389 55556
6 24976 56868
7 24962 56723
8 23995 55358
9 23904 55332
10 24935 56838
11 23272 55306
12 23093 55321
13 24453 55687
14 23881 55358
15 24356 55602
16 24752 56085
17 23973 55384
18 24327 55598
19 23610 55320
20 24347 57918
21 23174 55328
22 23922 55396
23 23247 55335
24 24766 57407
25 22987 55393
26 23648 55343
27 23380 55338
28 23977 55417
29 22962 55437
30 23027 55413
31 23984 55453
32 24792 56341
33 24822 57067
34 23934 55451
35 24416 57763
36 24223 55628
37 23984 55481
38 24260 55668
39 24665 56133
40 23920 55471
41 24665 56133
42 23984 55481
43 23175 55430
44 24144 55598
45 23771 55425
46 24813 56898
47 23699 55425
48 23769 55444
49 23425 55414
50 23019 55479
51 23515 55422
52 23098 55464
53 24572 57504
54 24572 57504
55 23104 55455
56 23104 55455
57 22984 55510
58 24328 55761
59 23191 55456
60 23950 55529
61 23950 55529
62 23427 55449
63 24223 57817
64 24223 57817
65 23951 55541
66 23505 55462
67 24499 56021
68 23671 55497
69 23671 55497
70 23525 55484
71 24662 57205
72 23871 55548
73 23525 55484
74 23957 55593
75 24179 55745
76 24337 57665
77 23829 55571
78 24611 56299
79 23362 55549
80 23745 57957
81 23101 55593
82 23890 57889
83 24585 57186
84 23497 55559
85 23051 55627
86 23163 55592
87 24189 55824
88 24258 55882
89 24424 56088
90 24374 56024
91 23601 55597
92 23488 55601
93 23702 55621
94 23702 55621
95 24214 55883
96 24308 57558
97 24245 55921
98 23511 55610
99 24546 56398
100 24085 55818
101 23453 55623
102 24337 56037
103 23216 55644
104 23237 55636
105 23675 55652
106 23947 55738
107 24255 55974
108 24255 55974
109 23901 55730
110 23332 55655
111 24311 56066
112 24293 56051
113 24526 57069
114 24233 55986
115 23353 55666
116 24335 56104
117 23489 55671
118 24017 55834
119 24052 57661
120 24284 56074
121 23612 55694
122 24210 57532
123 24295 56102
124 23190 55723
125 24339 57337
126 24014 55917
127 24228 56107
128 24088 57571
129 24077 55957
130 24269 56175
131 23913 55870
132 23855 55826
133 23487 55763
134 23835 55833
135 24249 56168
136 23997 55949
137 24235 57347
138 24052 57546
139 23483 55802
140 23483 55802
141 23451 55798
142 23301 55814
143 23606 57716
144 24213 56195
145 24203 56212
146 24040 56043
147 23754 55878
148 24163 56158
149 24153 56170
150 23266 55874
151 24349 56942
152 24178 56225
153 24149 56187
154 23519 55875
155 23532 55879
156 24180 57250
157 24180 57250
158 23520 55892
159 24132 56217
160 24132 56217
161 23520 55892
162 23706 55936
163 24043 56153
164 24034 56139
165 23962 56095
166 23379 55933
167 24055 56195
168 24028 56194
169 23103 57463
170 23088 56091
171 24133 56563
172 23359 57454
173 23882 57294
174 24073 56832
175 23985 56443
176 23163 56220
177 23982 57082
178 23404 56166
179 23969 56486
180 23913 57112
181 23827 56338
182 23980 56815
183 23183 57202
184 23931 56906
185 23732 56353
186 23862 56526
187 23768 57110
188 23143 57104
189 23296 56342
190 23220 56396
191 23752 57070
192 23253 57013
193 23214 56564
194 23744 56811
195 23303 57012
196 23731 56715
197 23630 56823
198 23370 56882
199 23381 56740
200 23381 56740
201 23452 56766
DEMAND_SECTION
1 0 0
2 90 0
3 60 0
4 70 0
5 50 0
6 20 0
7 60 0
8 60 0
9 30 0
10 90 0
11 50 0
12 40 0
13 60 0
14 50 0
15 80 0
16 50 0
17 40 0
18 40 0
19 90 0
20 10 0
21 70 0
22 40 0
23 30 0
24 40 0
25 40 0
26 40 0
27 80 0
28 40 0
29 40 0
30 40 0
31 20 0
32 80 0
33 90 0
34 30 0
35 20 0
36 10 0
37 10 0
38 90 0
39 30 0
40 70 0
41 70 0
42 40 0
43 30 0
44 20 0
45 80 0
46 70 0
47 90 0
48 90 0
49 10 0
50 90 0
51 10 0
52 20 0
53 50 0
54 70 0
55 30 0
56 90 0
57 30 0
58 80 0
59 70 0
60 10 0
61 90 0
62 70 0
63 70 0
64 40 0
65 90 0
66 70 0
67 30 0
68 30 0
69 70 0
70 90 0
71 20 0
72 60 0
73 50 0
74 10 0
75 20 0
76 90 0
77 50 0
78 20 0
79 20 0
80 20 0
81 10 0
82 50 0
83 90 0
84 80 0
85 80 0
86 10 0
87 50 0
88 50 0
89 90 0
90 60 0
91 20 0
92 30 0
93 30 0
94 90 0
95 70 0
96 50 0
97 60 0
98 80 0
99 40 0
100 90 0
101 30 0
102 40 0
103 90 0
104 30 0
105 90 0
106 10 0
107 80 0
108 20 0
109 30 0
110 80 0
111 70 0
112 70 0
113 90 0
114 80 0
115 60 0
116 40 0
117 90 0
118 90 0
119 30 0
120 40 0
121 80 0
122 30 0
123 60 0
124 40 0
125 50 0
126 10 0
127 50 0
128 60 0
129 10 0
130 30 0
131 60 0
132 80 0
133 20 0
134 80 0
135 20 0
136 70 0
137 70 0
138 50 0
139 40 0
140 80 0
141 70 0
142 90 0
143 50 0
144 10 0
145 70 0
146 30 0
147 60 0
148 40 0
149 40 0
150 60 0
151 40 0
152 60 0
153 30 0
154 50 0
155 10 0
156 50 0
157 10 0
158 80 0
159 20 0
160 10 0
161 10 0
162 50 0
163 60 0
164 10 0
165 10 0
166 10 0
167 90 0
168 40 0
169 10 0
170 40 0
171 70 0
172 70 0
173 60 0
174 60 0
175 60 0
176 50 0
177 80 0
178 60 0
179 90 0
180 50 0
181 40 0
182 10 0
183 20 0
184 30 0
185 70 0
186 70 0
187 10 0
188 50 0
189 90 0
190 10 0
191 80 0
192 30 0
193 40 0
194 30 0
195 80 0
196 80 0
197 90 0
198 70 0
199 30 0
200 50 0
201 50 0
PICKUP_SECTION
1 0 0
2 0 0
3 0 0
4 0 0
5 0 0
6 0 0
7 0 0
8 0 0
9 0 0
10 0 0
11 0 0
12 0 0
13 0 0
14 0 0
15 0 0
16 0 0
17 0 0
18 0 0
19 0 0
20 0 0
21 0 0
22 0 0
23 0 0
24 0 0
25 0 0
26 0 0
27 0 0
28 0 0
29 0 0
30 0 0
31 0 0
32 0 0
33 0 0
34 0 0
35 0 0
36 0 0
37 0 0
38 0 0
39 0 0
40 0 0
41 0 0
42 0 0
43 0 0
44 0 0
45 0 0
46 0 0
47 0 0
48 0 0
49 0 0
50 0 0
51 0 0
52 0 0
53 0 0
54 0 0
55 0 0
56 0 0
57 0 0
58 0 0
59 0 0
60 0 0
61 0 0
62 0 0
63 0 0
64 0 0
65 0 0
66 0 0
67 0 0
68 0 0
69 0 0
70 0 0
71 0 0
72 0 0
73 0 0
74 0 0
75 0 0
76 0 0
77 0 0
78 0 0
79 0 0
80 0 0
81 0 0
82 0 0
83 0 0
84 0 0
85 0 0
86 0 0
87 0 0
88 0 0
89 0 0
90 0 0
91 0 0
92 0 0
93 0 0
94 0 0
95 0 0
96 0 0
97 0 0
98 0 0
99 0 0
100 0 0
101 0 0
102 0 0
103 0 0
104 0 0
105 0 0
106 0 0
107 0 0
108 0 0
109 0 0
110 0 0
111 0 0
112 0 0
113 0 0
114 0 0
115 0 0
116 0 0
117 0 0
118 0 0
119 0 0
120 0 0
121 0 0
122 0 0
123 0 0
124 0 0
125 0 0
126 0 0
127 0 0
128 0 0
129 0 0
130 0 0
131 0 0
132 0 0
133 0 0
134 0 0
135 0 0
136 0 0
137 0 0
138 0 0
139 0 0
140 0 0
141 0 0
142 0 0
143 0 0
144 0 0
145 0 0
146 0 0
147 0 0
148 0 0
149 0 0
150 0 0
151 0 0
152 0 0
153 0 0
154 0 0
155 0 0
156 0 0
157 0 0
158 0 0
159 0 0
160 0 0
161 0 0
162 0 0
163 0 0
164 0 0
165 0 0
166 0 0
167 0 0
168 0 0
169 0 0
170 0 0
171 0 0
172 0 0
173 0 0
174 0 0
175 0 0
176 0 0
177 0 0
178 0 0
179 0 0
180 0 0
181 0 0
182 0 0
183 0 0
184 0 0
185 0 0
186 0 0
187 0 0
188 0 0
189 0 0
190 0 0
191 0 0
192 0 0
193 0 0
194 0 0
195 0 0
196 0 0
197 0 0
198 0 0
199 0 0
200 0 0
201 0 0
TIME_WINDOW_SECTION
2  7:15 14:00
3  7:45 15:30
4  7:00 14:45
5  7:00 18:00
6  7:00 18:00
7  8:15 14:30
8  7:15 13:45
9  7:00 18:00
10  7:30 12:15
11  7:00 18:00
12  9:30 15:30
13  8:15 14:00
14  7:00 18:00
15  8:30 15:30
16  7:00 18:00
17  7:45 12:15
18  7:15 15:00
19  7:30 14:30
20  9:00 14:00
21  7:00 18:00
22  7:00 18:00
23  7:00 18:00
24  7:30 14:15
25  7:30 14:30
26  7:15 14:00
27  9:00 14:00
28  7:00 18:00
29  7:00 18:00
30  7:00 18:00
31 10:00 14:30
32  7:00 13:15
33  7:00 18:00
34  7:00 18:00
35 11:00 15:45
36  8:00 13:45
37  7:00 15:00
38 10:00 14:45
39  7:00 18:00
40  7:00 18:00
41  8:30 14:15
42  7:00 18:00
43  7:00 14:15
44  7:00 18:00
45  7:00 18:00
46  9:00 14:15
47  8:00 13:45
48  7:00 18:00
49  8:45 15:15
50  7:00 18:00
51  7:00 18:00
52  7:00 18:00
53  9:00 15:30
54 10:00 14:45
55  7:00 18:00
56  7:30 13:45
57  9:15 14:00
58  7:00 18:00
59  8:15 14:15
60  7:00 18:00
61  7:45 15:15
62  9:00 15:00
63  7:00 18:00
64  8:00 15:15
65 11:00 15:15
66  7:00 18:00
67  7:00 18:00
68  7:00 18:00
69  7:00 15:00
70  7:00 18:00
71  7:00 18:00
72  8:30 13:45
73  7:45 13:00
74 10:00 15:15
75  9:00 15:45
76  7:00 18:00
77  7:45 15:30
78  7:00 18:00
79  7:30 14:45
80  7:00 18:00
81  7:00 18:00
82  8:00 12:45
83  9:30 15:00
84  7:30 14:15
85  7:00 18:00
86  8:15 14:30
87  9:00 13:15
88  8:45 13:00
89  9:15 14:30
90 10:30 15:30
91  7:00 18:00
92  7:00 18:00
93  9:30 15:45
94  7:00 18:00
95  7:15 12:45
96 11:45 16:00
97  7:00 11:30
98  7:00 18:00
99  7:00 18:00
100  7:00 18:00
101  8:15 13:15
102  7:45 15:45
103  7:00 14:00
104  7:00 18:00
105  7:00 18:00
106  7:00 18:00
107  7:00 18:00
108  8:00 15:00
109  7:15 14:45
110  8:30 15:15
111  7:30 14:30
112  7:00 18:00
113  7:00 18:00
114  8:30 13:30
115  7:00 18:00
116  7:00 18:00
117  7:00 18:00
118  7:30 15:30
119  8:30 14:15
120  7:00 18:00
121  7:00 18:00
122  8:15 12:45
123  9:30 15:45
124  8:45 15:15
125  7:00 18:00
126  7:00 18:00
127  8:15 15:30
128  7:00 11:30
129  7:00 18:00
130  7:00 18:00
131  9:30 13:45
132  7:45 15:00
133  7:00 18:00
134  7:00 18:00
135  7:30 12:45
136  7:00 13:00
137  8:15 14:45
138  7:00 18:00
139  7:00 18:00
140  7:00 18:00
141  7:45 14:30
142  9:00 15:00
143  7:00 18:00
144  7:00 18:00
145  7:00 18:00
146  7:30 14:15
147  9:45 15:00
148  7:00 18:00
149  7:00 18:00
150  7:00 18:00
151  7:00 18:00
152 10:15 16:30
153  7:00 15:00
154 11:30 16:30
155  7:30 14:00
156  8:30 12:45
157 10:30 16:15
158 10:00 14:15
159  7:00 15:00
160  7:00 18:00
161  7:00 18:00
162  8:00 16:00
163 11:15 15:45
164  7:00 18:00
165  7:00 18:00
166  7:00 18:00
167  7:00 18:00
168  8:15 14:45
169  8:30 14:15
170  8:45 16:30
171 10:30 16:00
172  7:00 11:15
173  7:45 15:45
174  7:00 18:00
175  7:00 18:00
176  7:00 18:00
177  7:00 18:00
178  7:30 15:00
179  8:00 14:00
180  7:00 18:00
181  7:00 18:00
182  8:00 14:00
183  7:30 13:30
184  7:15 14:45
185  9:45 16:45
186  9:45 15:00
187  7:30 15:15
188  7:00 18:00
189  7:00 18:00
190 11:45 16:45
191  9:45 15:15
192  9:30 16:00
193  8:15 14:00
194  7:00 18:00
195  7:00 12:00
196  7:30 13:45
197  7:00 18:00
198  7:00 18:00
199  7:00 18:00
200  7:00 18:00
201 10:30 17:00
STANDTIME_SECTION
2 5
3 5
4 5
5 5
6 5
7 5
8 5
9 5
10 5
11 5
12 5
13 5
14 5
15 5
16 5
17 5
18 5
19 5
20 5
21 5
22 5
23 5
24 5
25 5
26 5
27 5
28 5
29 5
30 5
31 5
32 5
33 5
34 5
35 5
36 5
37 5
38 5
39 5
40 5
41 5
42 5
43 5
44 5
45 5
46 5
47 5
48 5
49 5
50 5
51 5
52 5
53 5
54 5
55 5
56 5
57 5
58 5
59 5
60 5
61 5
62 5
63 5
64 5
65 5
66 5
67 5
68 5
69 5
70 5
71 5
72 5
73 5
74 5
75 5
76 5
77 5
78 5
79 5
80 5
81 5
82 5
83 5
84 5
85 5
86 5
87 5
88 5
89 5
90 5
91 5
92 5
93 5
94 5
95 5
96 5
97 5
98 5
99 5
100 5
101 5
102 5
103 5
104 5
105 5
106 5
107 5
108 5
109 5
110 5
111 5
112 5
113 5
114 5
115 5
116 5
117 5
118 5
119 5
120 5
121 5
122 5
123 5
124 5
125 5
126 5
127 5
128 5
129 5
130 5
131 5
132 5
133 5
134 5
135 5
136 5
137 5
138 5
139 5
140 5
141 5
142 5
143 5
144 5
145 5
146 5
147 5
148 5
149 5
150 5
151 5
152 5
153 5
154 5
155 5
156 5
157 5
158 5
159 5
160 5
161 5
162 5
163 5
164 5
165 5
166 5
167 5
168 5
169 5
170 5
171 5
172 5
173 5
174 5
175 5
176 5
177 5
178 5
179 5
180 5
181 5
182 5
183 5
184 5
185 5
186 5
187 5
188 5
189 5
190 5
191 5
192 5
193 5
194 5
195 5
196 5
197 5
198 5
199 5
200 5
201 5
DEPOT_SECTION
1
-1
EOF
